AME : levi30_9
COMMENT : 30: 30x24 -city problem (levikoppenhol)
TYPE : TSP
DIMENSION : 30
EDGE_WEIGHT_TYPE : EUC_2D
NODE_COORD_SECTION
1 23 19
2 6 5
3 21 17
4 21 26
5 5 18
6 7 26
7 19 23
8 6 6
9 7 16
10 15 8
11 8 15
12 7 7
13 20 3
14 8 27
15 8 18
16 9 5
17 3 7
18 11 3
19 23 8
20 14 24
21 9 4
22 21 13
23 16 15
24 0 19
25 12 17
26 5 13
27 9 18
28 24 18
29 12 18
30 6 18
EOF